language ESSENCE' 1.0
letting initGrid be [
    [1, 2, 3, 4, 4, 5, 5],
[2, 1, 2, 5, 5, 2, 6],
[1, 3, 6, 1, 3, 5, 3],
[4, 4, 3, 6, 2, 1, 5],
[1, 6, 5, 2, 4, 2, 1],
[5, 5, 4, 6, 6, 6, 1],
[3, 2, 1, 3, 6, 6, 2]
    ]
letting goalBlocksRemaining be 5
letting noSteps be 5
